10
1 0 48
2 0 41
2 1 80
3 0 6
3 1 50
3 2 9
4 0 18
4 1 71
4 2 35
4 3 67
5 0 67
5 1 70
5 2 30
5 3 62
5 4 3
6 0 59
6 1 75
6 2 27
6 3 32
6 4 1
6 5 71
7 0 42
7 1 43
7 2 56
7 3 16
7 4 28
7 5 75
7 6 49
8 0 35
8 1 66
8 2 74
8 3 37
8 4 40
8 5 24
8 6 42
8 7 15
9 0 7
9 1 13
9 2 1
9 3 1
9 4 3
9 5 1
9 6 4
9 7 16
9 8 30
